100
100
99
98
96
93
93
92
90
89
89
89
88
88
87
86
84
84
81
80
80
80
80
78
78
77
75
73
72
70
69
68
65
65
64
63
63
63
62
61
60
58
58
58
57
56
54
52
51
49
49
46
45
45
44
44
42
42
41
41
38
38
37
36
36
34
34
31
30
30
28
27
26
25
24
24
24
23
22
21
21
18
17
17
16
14
13
12
12
11
10
10
9
8
6
5
5
4
4
3
2
1
